30-136
p edge 30 136
e 1 7
e 1 10
e 1 15
e 1 16
e 1 17
e 1 19
e 1 22
e 1 24
e 1 25
e 2 16
e 2 17
e 2 19
e 2 20
e 2 24
e 2 29
e 3 4
e 3 6
e 3 13
e 3 15
e 3 16
e 3 18
e 3 23
e 3 25
e 3 30
e 4 6
e 4 9
e 4 10
e 4 19
e 5 6
e 5 8
e 5 13
e 5 15
e 5 19
e 5 22
e 5 23
e 5 27
e 5 30
e 6 7
e 6 12
e 6 15
e 7 10
e 7 16
e 7 19
e 7 24
e 7 25
e 8 9
e 8 10
e 8 14
e 8 15
e 8 16
e 8 21
e 8 23
e 8 24
e 8 27
e 9 14
e 9 18
e 9 19
e 9 22
e 9 24
e 9 25
e 9 27
e 10 11
e 10 12
e 10 14
e 10 17
e 10 24
e 10 26
e 10 28
e 10 30
e 11 15
e 11 19
e 11 21
e 11 25
e 11 26
e 11 29
e 11 30
e 12 14
e 12 17
e 12 22
e 12 27
e 13 15
e 13 17
e 13 18
e 13 19
e 13 20
e 13 21
e 13 23
e 13 26
e 13 30
e 14 15
e 14 16
e 14 18
e 14 19
e 14 20
e 14 23
e 14 27
e 14 28
e 15 22
e 15 30
e 16 19
e 16 23
e 16 26
e 17 18
e 17 19
e 17 25
e 17 26
e 17 28
e 17 29
e 18 20
e 18 25
e 18 27
e 19 24
e 19 25
e 19 28
e 20 24
e 20 30
e 21 22
e 21 23
e 21 26
e 22 23
e 22 24
e 22 25
e 22 26
e 22 28
e 22 30
e 23 24
e 23 25
e 23 27
e 24 28
e 24 29
e 25 27
e 25 29
e 25 30
e 26 30
e 27 29
e 28 30
